  Job Started  at 13:49.32 17th August     2020

  Number of CPUs =     1

  Total number of configurations input =      1

*  Input for Configuration =   1                                               *

  Formula = C16

  Number of irreducible atoms/shells =      16

  Total number atoms/shells =      16

  Dimensionality = 3               :  Bulk

  Cartesian lattice vectors (Angstroms) :

        2.211496    0.000000    0.000000
       -1.105748    1.915212    0.000000
        0.000000    0.000000   11.257663

  Cell parameters (Angstroms/Degrees):

  a =       2.2115    alpha =  90.0000
  b =       2.2115    beta  =  90.0000
  c =      11.2577    gamma = 120.0000

  Initial cell volume =          47.681641 Angs**3

  Temperature of configuration =   0.00     K

  Pressure of configuration =         0.000 GPa

  Fractional coordinates of asymmetric unit :

   No.  Atomic       x           y          z         Charge      Occupancy
        Label      (Frac)      (Frac)     (Frac)        (e)         (Frac)
      1 C     c    0.001999    0.275111    0.117364     0.00000    1.000000
      2 C     c    0.724889    0.726888    0.117364     0.00000    1.000000
      3 C     c    0.273112    0.998001    0.117364     0.00000    1.000000
      4 C     c    0.001999    0.275111    0.382636     0.00000    1.000000
      5 C     c    0.724889    0.726888    0.382636     0.00000    1.000000
      6 C     c    0.273112    0.998001    0.382636     0.00000    1.000000
      7 C     c    0.724889    0.998001    0.617364     0.00000    1.000000
      8 C     c    0.273112    0.275111    0.617364     0.00000    1.000000
      9 C     c    0.001999    0.726888    0.617364     0.00000    1.000000
     10 C     c    0.724889    0.998001    0.882636     0.00000    1.000000
     11 C     c    0.273112    0.275111    0.882636     0.00000    1.000000
     12 C     c    0.001999    0.726888    0.882636     0.00000    1.000000
     13 C     c    0.333333    0.666667    0.440879     0.00000    1.000000
     14 C     c    0.333333    0.666667    0.059121     0.00000    1.000000
     15 C     c    0.333333    0.666667    0.940879     0.00000    1.000000
     16 C     c    0.333333    0.666667    0.559121     0.00000    1.000000

*  General input information                                                   *

  Species output for all configurations :

  Species    Type    Atomic    Atomic    Charge       Radii (Angs)     Library
                     Number     Mass       (e)     Cova   Ionic  VDW   Symbol
    C        Core        6      12.01   0.000000   0.770  0.000  1.530 C

  Lattice summation method               =    Ewald          (3-D)
                                         =    Parry          (2-D)
                                         =    Saunders et al (1-D)
  Accuracy factor for lattice sums       =   12.000
  Target real space radius for Ewald sum =   10.000

  Analytic derivatives to be used

  Time limit = Infinity

  Bond-order two-body potentials :

Atom  Types                 A                 B                  Cutoffs(Ang)
  1     2                 ZetaA             ZetaB                Taper    Max
C    c C    c          1393.6000000000       346.7400000000     1.8000   2.1000
                          3.487900000          2.211900000

  Bond-order repulsive :

Atom    Type         Alpha            N             Lambda          M
 1/2     1/2
C    c             0.00000000       0.72751000       2.21190000       3
C    c

  Bond-order attractive :

Atom    Type         Alpha            N             Lambda          M
 1/2     1/2           C              D                H
C    c  Theta       0.00000016       0.72751000       2.21190000       3
C    c          38049.00000000       4.34840000      -0.57058000

*  Output for configuration   1                                                *

!! WARNING : No variables for gradients - only energy calculated

  Components of energy :

  Interatomic potentials     =           0.00000000 eV
  Bond-order potentials      =         505.73182926 eV
  Monopole - monopole (real) =           0.00000000 eV
  Monopole - monopole (recip)=           0.00000000 eV
  Monopole - monopole (total)=           0.00000000 eV
  Total lattice energy       =         505.73182926 eV
  Total lattice energy       =           48795.3907 kJ/(mole unit cells)

  Timing analysis for GULP :

  Task / Subroutine                                          Time (Seconds)
  Calculation of Bond Order energy and derivatives                0.0001

  CIF file written as opt.cif

  **** GULP has completed with 1 warning - beware! ****

  Job Finished at 13:49.32 17th August     2020